# Solution for model qis_1000_800_334
# Objective value = 3.0355034986070694e+02
x[0] 1.0000001943381651e+00
x[1] 1.0000001943905341e+00
x[2] 0
x[3] 1
x[4] 1
x[5] 1.0000001943116592e+00
x[6] 1
x[7] 0
x[8] 1
x[9] -1.9444444390716245e-07
x[10] 0
x[11] 0
x[12] 1
x[13] 1
x[14] 1.0000001942623846e+00
x[15] 0
x[16] 0
x[17] -3.8888889108967817e-07
x[18] 0
x[19] 9.9999999999999978e-01
x[20] 0
x[21] 3.8845520719515205e-07
x[22] 1
x[23] 0
x[24] 1
x[25] 0
x[26] 1
x[27] 0
x[28] 0
x[29] 1.0000001457820278e+00
x[30] 0
x[31] 1.0000000971385616e+00
x[32] 0
x[33] 0
x[34] 0
x[35] 1
x[36] 1
x[37] 0
x[38] 1
x[39] 0
x[40] -9.7222222050774550e-08
x[41] -1.9444444343541534e-07
x[42] 1
x[43] 0
x[44] 1.0000004860214617e+00
x[45] 0
x[46] 1.0000000971368865e+00
x[47] 0
x[48] 1.0000004374280125e+00
x[49] 1
x[50] 0
x[51] 1
x[52] 0
x[53] 1
x[54] 0
x[55] 1
x[56] 0
x[57] 1
x[58] 1
x[59] 1
x[60] 0
x[61] 1
x[62] 0
x[63] -1.8944444410154915e-07
x[64] 0
x[65] 1.0000000968536245e+00
x[66] 1
x[67] 0
x[68] -9.2222222272819176e-08
x[69] 1.0000000971662952e+00
x[70] 1
x[71] 1
x[72] 1
x[73] -4.82777779415165e-07
x[74] -1.9444444365745994e-07
x[75] 0
x[76] 1
x[77] 1
x[78] 0
x[79] 1
x[80] 1
x[81] 0
x[82] 1
x[83] 0
x[84] 0
x[85] 1
x[86] 0
x[87] -3.8555555753430023e-07
x[88] 0
x[89] 0
x[90] -9.7222222050774576e-08
x[91] 1
x[92] -1.9111111038153289e-07
x[93] 0
x[94] -4.3749999832199649e-07
x[95] 5.2700768350248993e-07
x[96] -9.2222222272819176e-08
x[97] 0
x[98] 0
x[99] 1
x[100] 1
x[101] 0
x[102] 0
x[103] 0
x[104] 1
x[105] 1
x[106] 1
x[107] 1
x[108] 1
x[109] 1
x[110] 0
x[111] 0
x[112] 0
x[113] 0
x[114] 1
x[115] 0
x[116] 1
x[117] 0
x[118] 1
x[119] 0
x[120] 1
x[121] 1
x[122] 1
x[123] 0
x[124] 0
x[125] 1
x[126] 0
x[127] 0
x[128] -1.9444444387950455e-07
x[129] 1
x[130] 1
x[131] 1
x[132] 1
x[133] 0
x[134] 1
x[135] 1.0000001943308632e+00
x[136] 0
x[137] 1.0000001943896122e+00
x[138] 0
x[139] 1
x[140] 0
x[141] 0
x[142] 9.9999980888888906e-01
x[143] 0
x[144] 0
x[145] 0
x[146] -2.9166666859481438e-07
x[147] 1
x[148] 1
x[149] 1.0000000971619172e+00
x[150] 0
x[151] 1
x[152] 1
x[153] 1
x[154] 1
x[155] -1.9444444387950455e-07
x[156] 1
x[157] 1
x[158] 1
x[159] 1
x[160] 0
x[161] 1.0000001943254075e+00
x[162] 1
x[163] 0
x[164] 0
x[165] 0
x[166] 1.0000000971772129e+00
x[167] 1
x[168] 1
x[169] -1.9444444343541534e-07
x[170] 0
x[171] -9.2323242787252819e-08
x[172] 0
x[173] 0
x[174] 0
x[175] 0
x[176] 0
x[177] 1
x[178] 9.9999980555555457e-01
x[179] 1
x[180] 1
x[181] 1.0000004860155658e+00
x[182] 0
x[183] 0
x[184] 1
x[185] 1
x[186] 0
x[187] 9.9999999999999978e-01
x[188] 1
x[189] 1
x[190] 0
x[191] 0
x[192] 0
x[193] 1
x[194] -1.9444444365745994e-07
x[195] 0
x[196] 0
x[197] 0
x[198] 1.0000000971730083e+00
x[199] 0
x[200] 0
x[201] 1
x[202] 1
x[203] 1
x[204] 0
x[205] -2.5925926028236290e-07
x[206] 1
x[207] 1
x[208] 1
x[209] 1
x[210] 0
x[211] 0
x[212] 0
x[213] 0
x[214] 1.0000005832031906e+00
x[215] 1
x[216] 0
x[217] 1
x[218] 0
x[219] 0
x[220] 0
x[221] 1
x[222] 0
x[223] 0
x[224] -9.7222222272819181e-08
x[225] 1
x[226] 1
x[227] 0
x[228] 0
x[229] 1
x[230] 0
x[231] 1.0000003887612663e+00
x[232] 1
x[233] 1
x[234] 0
x[235] 0
x[236] 0
x[237] 1
x[238] 1
x[239] 1
x[240] 0
x[241] 0
x[242] 0
x[243] 1.9433538012163838e-07
x[244] 1
x[245] 1
x[246] 1
x[247] 1
x[248] 1
x[249] 1
x[250] 1
x[251] 1
x[252] 0
x[253] 0
x[254] 1
x[255] 1
x[256] 1
x[257] 0
x[258] 1
x[259] 0
x[260] -3.8388889108967816e-07
x[261] -1.9444444390716245e-07
x[262] 0
x[263] 1
x[264] 1
x[265] 0
x[266] 0
x[267] 1
x[268] 0
x[269] 1
x[270] 0
x[271] 0
x[272] -1.9444444426269264e-07
x[273] 0
x[274] 1
x[275] 1
x[276] 1
x[277] 0
x[278] 0
x[279] 1
x[280] 1
x[281] 1
x[282] 0
x[283] -1.8954546444384157e-07
x[284] 0
x[285] 1
x[286] 0
x[287] 1.0000001943148156e+00
x[288] 1
x[289] 1
x[290] 0
x[291] 1
x[292] 1.0000001938401728e+00
x[293] 1
x[294] 1
x[295] 1.0000000971239777e+00
x[296] 0
x[297] 1
x[298] 1.0000000970797787e+00
x[299] 1
x[300] 1
x[301] 1.0000003888172027e+00
x[302] -1.9117117541066075e-07
x[303] 1
x[304] 0
x[305] 0
x[306] 1.0000002592007193e+00
x[307] -1.9444444343541534e-07
x[308] 1
x[309] 1
x[310] 1
x[311] 1
x[312] 1.0000001943484136e+00
x[313] 0
x[314] 0
x[315] 1
x[316] 1
x[317] 1
x[318] 1
x[319] 1
x[320] -1.9444444348633737e-07
x[321] 1
x[322] 1
x[323] 1
x[324] 0
x[325] 1
x[326] 0
x[327] 1
x[328] 1
x[329] 1
x[330] 1
x[331] 0
x[332] 1
x[333] 1
x[334] 0
x[335] 0
x[336] 0
x[337] 1
x[338] 1
x[339] 0
x[340] 1
x[341] 1
x[342] 0
x[343] 0
x[344] 1
x[345] 0
x[346] 0
x[347] 1
x[348] 0
x[349] 0
x[350] 0
x[351] -1.9111111143434963e-07
x[352] 0
x[353] 0
x[354] 1
x[355] 1
x[356] 0
x[357] -1.94444444291755e-07
x[358] 0
x[359] -9.7222222050774576e-08
x[360] 1
x[361] 1
x[362] 0
x[363] 0
x[364] 0
x[365] -1.9444444352256995e-07
x[366] 0
x[367] 0
x[368] 0
x[369] 9.9999999999999978e-01
x[370] 0
x[371] 0
x[372] -9.37906444233111e-08
x[373] 1
x[374] 0
x[375] 1
x[376] 0
x[377] 1
x[378] 0
x[379] 0
x[380] 0
x[381] 1.0000001943634029e+00
x[382] 1
x[383] -1.9444444486864387e-07
x[384] 1
x[385] 1
x[386] 0
x[387] 0
x[388] 0
x[389] 0
x[390] 1
x[391] 1
x[392] 0
x[393] 1
x[394] 0
x[395] 1.0000000971436154e+00
x[396] 1
x[397] 0
x[398] 1
x[399] 0
x[400] 0
x[401] 1
x[402] 0
x[403] 0
x[404] 1
x[405] 0
x[406] 1
x[407] 1
x[408] 1
x[409] 1
x[410] 1
x[411] 1.0000001943671661e+00
x[412] 1
x[413] 1
x[414] 1
x[415] 0
x[416] 0
x[417] 1
x[418] 0
x[419] 1
x[420] 0
x[421] 1.0000000970876939e+00
x[422] 1
x[423] 0
x[424] 1
x[425] 1
x[426] 1
x[427] 1
x[428] 1
x[429] 1
x[430] 1
x[431] 1.0000001943790708e+00
x[432] 0
x[433] 1
x[434] 0
x[435] 1
x[436] 1
x[437] 1
x[438] 0
x[439] 1
x[440] 1
x[441] 0
x[442] 0
x[443] 0
x[444] 0
x[445] 0
x[446] 0
x[447] 0
x[448] 0
x[449] 1
x[450] 0
x[451] 1
x[452] 1
x[453] 1
x[454] 1
x[455] 1
x[456] 1
x[457] 1
x[458] 0
x[459] 0
x[460] 1
x[461] 1
x[462] 0
x[463] 0
x[464] 1
x[465] 1
x[466] 0
x[467] 1
x[468] 1
x[469] 0
x[470] 1.0000002591839483e+00
x[471] 0
x[472] 1
x[473] 1
x[474] 0
x[475] 1
x[476] 0
x[477] 0
x[478] 0
x[479] 1
x[480] 1
x[481] 1
x[482] 0
x[483] 0
x[484] 1
x[485] 1
x[486] 1
x[487] 0
x[488] 1
x[489] 0
x[490] 1
x[491] 1
x[492] 0
x[493] 0
x[494] 0
x[495] 1
x[496] 0
x[497] 0
x[498] 1
x[499] 0
x[500] 1
x[501] 1
x[502] -1.9111110968986643e-07
x[503] 1
x[504] -1.9444444365745994e-07
x[505] 0
x[506] 1
x[507] 0
x[508] 9.9999999999999978e-01
x[509] 1
x[510] 1
x[511] 0
x[512] 0
x[513] -4.3749999867337408e-07
x[514] 1
x[515] -1.9444444365745994e-07
x[516] 0
x[517] 1
x[518] 1
x[519] 1
x[520] 1
x[521] 1
x[522] 1
x[523] 1.0000000971787857e+00
x[524] -1.4583333320328732e-07
x[525] 0
x[526] 1
x[527] -9.7222222318024919e-08
x[528] 1
x[529] 1.0000000971727683e+00
x[530] 0
x[531] 0
x[532] 1
x[533] 1
x[534] 0
x[535] 0
x[536] -1.9444444395736509e-07
x[537] 1
x[538] 1
x[539] 1.0000000242221458e+00
x[540] 0
x[541] 1
x[542] 0
x[543] 1
x[544] 0
x[545] 1
x[546] 0
x[547] -9.7222222050774576e-08
x[548] 1
x[549] 0
x[550] 1
x[551] 0
x[552] -1.9111111032412661e-07
x[553] 1.0000000970188812e+00
x[554] -9.7222222242025629e-08
x[555] 0
x[556] 0
x[557] 1
x[558] 1
x[559] 0
x[560] 0
x[561] 1.0000001943900338e+00
x[562] 1
x[563] 1.0000002916063728e+00
x[564] 1.0000001943969505e+00
x[565] 0
x[566] 0
x[567] 1
x[568] 0
x[569] 1
x[570] -2.8823730223682840e-07
x[571] 0
x[572] 0
x[573] 0
x[574] 1
x[575] 1
x[576] 0
x[577] 1
x[578] 1
x[579] 1.0000001943703962e+00
x[580] 0
x[581] 0
x[582] 0
x[583] -9.3888888723853848e-08
x[584] 1
x[585] 1
x[586] 1
x[587] 0
x[588] 1
x[589] 1
x[590] 1
x[591] 0
x[592] 0
x[593] 0
x[594] 1
x[595] 0
x[596] 0
x[597] 1
x[598] 0
x[599] 1.0000001943983
x[600] 0
x[601] 1
x[602] 1
x[603] 0
x[604] 0
x[605] 1
x[606] 0
x[607] 0
x[608] 0
x[609] 1
x[610] 0
x[611] 0
x[612] 1
x[613] 1
x[614] -9.7222222931986772e-08
x[615] 1
x[616] 1
x[617] 1
x[618] 0
x[619] 1.0000002591902839e+00
x[620] 1
x[621] 0
x[622] 1.0000001943999448e+00
x[623] 1
x[624] 0
x[625] 0
x[626] 0
x[627] 1
x[628] 0
x[629] 0
x[630] 0
x[631] 1
x[632] 0
x[633] 9.9999999999999978e-01
x[634] 1
x[635] 1
x[636] 0
x[637] 0
x[638] -1.9444444410154915e-07
x[639] 0
x[640] 1
x[641] 0
x[642] 1
x[643] -9.7222221939752274e-08
x[644] 9.9999961111110891e-01
x[645] 1.0000003888241276e+00
x[646] 1
x[647] 0
x[648] 1
x[649] -9.3888889100988557e-08
x[650] 0
x[651] 1.0000001941060188e+00
x[652] 1
x[653] 1
x[654] 0
x[655] 1
x[656] 1
x[657] 1.0000001943389558e+00
x[658] 1
x[659] 0
x[660] 0
x[661] 1
x[662] 1.0000001943761896e+00
x[663] -3.8888889108336147e-07
x[664] 1
x[665] 0
x[666] 0
x[667] 1
x[668] 0
x[669] -2.5925926032658374e-07
x[670] 1
x[671] 0
x[672] 1.0000003888027138e+00
x[673] 1.0000000971242373e+00
x[674] 0
x[675] 1.0000002915407229e+00
x[676] 1
x[677] 0
x[678] -3.8888889086763356e-07
x[679] 0
x[680] -1.9444444348633734e-07
x[681] 0
x[682] 0
x[683] 1
x[684] 1
x[685] 0
x[686] 1
x[687] 1
x[688] 0
x[689] 1
x[690] 0
x[691] 1
x[692] 1
x[693] 1
x[694] -1.9444444371486622e-07
x[695] 0
x[696] 1
x[697] -9.7222222242025669e-08
x[698] 1
x[699] 1
x[700] 0
x[701] 1
x[702] 1
x[703] 1
x[704] 0
x[705] 1
x[706] -9.7222222242025629e-08
x[707] 1
x[708] 0
x[709] 1
x[710] 0
x[711] 0
x[712] 0
x[713] 0
x[714] 1
x[715] 1.0000001938108964e+00
x[716] 1
x[717] 0
x[718] 0
x[719] 0
x[720] 1
x[721] 9.9999999999999956e-01
x[722] 0
x[723] 0
x[724] 1
x[725] 1
x[726] 0
x[727] 1
x[728] 1
x[729] 0
x[730] 1.0000001943485892e+00
x[731] 1
x[732] 1.0000000971653591e+00
x[733] 0
x[734] 1
x[735] 1.0000002916162323e+00
x[736] 1
x[737] 0
x[738] -7.18711822309128e-07
x[739] 1
x[740] 1
x[741] 0
x[742] 1
x[743] 0
x[744] 0
x[745] 1
x[746] 1
x[747] 0
x[748] 1
x[749] -1.9444444365745994e-07
x[750] 0
x[751] 0
x[752] 1
x[753] 1
x[754] 1
x[755] 0
x[756] 1
x[757] 0
x[758] 1
x[759] 9.9999999999999944e-01
x[760] 0
x[761] 1
x[762] 1
x[763] 0
x[764] 1
x[765] 1
x[766] 0
x[767] 0
x[768] 1
x[769] 0
x[770] 0
x[771] 0
x[772] 0
x[773] 0
x[774] 0
x[775] 0
x[776] -2.8833333348512421e-07
x[777] -1.9444444365745994e-07
x[778] 0
x[779] 0
x[780] 0
x[781] 0
x[782] 0
x[783] 1.0000001941988521e+00
x[784] 0
x[785] 1
x[786] 0
x[787] -9.7222222272819181e-08
x[788] 0
x[789] 0
x[790] 0
x[791] 0
x[792] -9.7222222272819181e-08
x[793] 0
x[794] 1
x[795] 1
x[796] 0
x[797] 1.0000000971330187e+00
x[798] 1.0000001943581660e+00
x[799] 1
x[800] 0
x[801] 1
x[802] 1
x[803] 1
x[804] 0
x[805] 1
x[806] 0
x[807] 0
x[808] 0
x[809] 1
x[810] 1
x[811] 0
x[812] 1
x[813] 0
x[814] 0
x[815] 0
x[816] 0
x[817] 0
x[818] 0
x[819] 0
x[820] 0
x[821] 0
x[822] 0
x[823] 0
x[824] 1.0000002915244601e+00
x[825] 1.0000000970111991e+00
x[826] 0
x[827] 1
x[828] 0
x[829] 0
x[830] 1
x[831] 0
x[832] 1
x[833] -4.8268223254353414e-07
x[834] 0
x[835] 1
x[836] 0
x[837] 1.0000002910933370e+00
x[838] 0
x[839] -9.3888888717441239e-08
x[840] 0
x[841] 1.0000000971619576e+00
x[842] 0
x[843] 1
x[844] 1
x[845] 1
x[846] 1
x[847] 1
x[848] 1
x[849] 1
x[850] 1
x[851] 0
x[852] 0
x[853] 0
x[854] 0
x[855] 1
x[856] -9.72222224343219e-08
x[857] 1.0000001942524290e+00
x[858] 0
x[859] 0
x[860] 0
x[861] 1
x[862] 1
x[863] 1
x[864] -9.3888888939485844e-08
x[865] 0
x[866] 0
x[867] 0
x[868] 1
x[869] 0
x[870] 1
x[871] 0
x[872] 0
x[873] 0
x[874] 1
x[875] 0
x[876] 1
x[877] 0
x[878] 1
x[879] 1
x[880] 0
x[881] 0
x[882] 1
x[883] 0
x[884] 1
x[885] 0
x[886] 1
x[887] 0
x[888] 1
x[889] 1
x[890] 1
x[891] -1.9444444365745994e-07
x[892] 1
x[893] -9.7222222272819181e-08
x[894] 0
x[895] -1.9444444476768297e-07
x[896] 0
x[897] 1
x[898] 1
x[899] 0
x[900] 1.0000001943811381e+00
x[901] 0
x[902] 9.9999990277777706e-01
x[903] 0
x[904] 0
x[905] 1.0000001941606536e+00
x[906] 0
x[907] 1
x[908] 1.0000004856183440e+00
x[909] 0
x[910] 1
x[911] 0
x[912] 1
x[913] -3.8555555775634483e-07
x[914] 1.0000001943750736e+00
x[915] 0
x[916] 1
x[917] 0
x[918] 0
x[919] 0
x[920] 0
x[921] 1
x[922] 1
x[923] 1
x[924] 1
x[925] 1
x[926] 1
x[927] 1
x[928] 1
x[929] -9.7222222050774576e-08
x[930] 0
x[931] 0
x[932] 1
x[933] 1.0000001943829289e+00
x[934] 5.83268660441687e-07
x[935] 0
x[936] 1
x[937] 1.0000001942903056e+00
x[938] 1.0000000971487144e+00
x[939] 1.0000000971771505e+00
x[940] 1.0000001943886840e+00
x[941] 0
x[942] 0
x[943] 0
x[944] 0
x[945] 0
x[946] 1
x[947] 0
x[948] 0
x[949] 0
x[950] 0
x[951] 0
x[952] 1
x[953] 0
x[954] 1
x[955] 1
x[956] 0
x[957] 1
x[958] 0
x[959] 1
x[960] -1.9444444299132613e-07
x[961] 0
x[962] 0
x[963] 1.0000003888174045e+00
x[964] 0
x[965] 1
x[966] 1
x[967] -9.7222222050774576e-08
x[968] 1
x[969] 0
x[970] 1
x[971] 0
x[972] 0
x[973] 1
x[974] 0
x[975] 1
x[976] 1
x[977] 0
x[978] 1
x[979] 1
x[980] 1
x[981] -1.9111111076821582e-07
x[982] 1
x[983] 0
x[984] 0
x[985] 1.0000001943811587e+00
x[986] 1
x[987] -1.9444444410154915e-07
x[988] 0
x[989] 1
x[990] -4.8061834403625836e-07
x[991] 1
x[992] 1
x[993] 1
x[994] 1
x[995] 0
x[996] 0
x[997] 0
x[998] 1
x[999] 1.0000000971761218e+00
